p cnf 300 2175
1 46 91 136 181 16 61 106 151 196 31 76 121 166 211 0
2 47 92 137 182 17 62 107 152 197 32 77 122 167 212 0
3 48 93 138 183 18 63 108 153 198 33 78 123 168 213 0
4 49 94 139 184 19 64 109 154 199 34 79 124 169 214 0
5 50 95 140 185 20 65 110 155 200 35 80 125 170 215 0
6 51 96 141 186 21 66 111 156 201 36 81 126 171 216 0
7 52 97 142 187 22 67 112 157 202 37 82 127 172 217 0
8 53 98 143 188 23 68 113 158 203 38 83 128 173 218 0
9 54 99 144 189 24 69 114 159 204 39 84 129 174 219 0
10 55 100 145 190 25 70 115 160 205 40 85 130 175 220 0
11 56 101 146 191 26 71 116 161 206 41 86 131 176 221 0
12 57 102 147 192 27 72 117 162 207 42 87 132 177 222 0
13 58 103 148 193 28 73 118 163 208 43 88 133 178 223 0
14 59 104 149 194 29 74 119 164 209 44 89 134 179 224 0
15 60 105 150 195 30 75 120 165 210 45 90 135 180 225 0
-1 -1 -1 -1 1 0
-16 -16 -16 -16 16 0
-31 -31 -31 -31 31 0
-46 -46 -46 -46 46 0
-61 -61 -61 -61 61 0
-76 -76 -76 -76 76 0
-91 -91 -91 -91 91 0
-106 -106 -106 -106 106 0
-121 -121 -121 -121 121 0
-136 -136 -136 -136 136 0
-151 -151 -151 -151 151 0
-166 -166 -166 -166 166 0
-181 -181 -181 -181 181 0
-196 -196 -196 -196 196 0
-211 -211 -211 -211 211 0
-2 -2 -2 2 -2 0
-17 -17 -17 17 -17 0
-32 -32 -32 32 -32 0
-47 -47 -47 47 -47 0
-62 -62 -62 62 -62 0
-77 -77 -77 77 -77 0
-92 -92 -92 92 -92 0
-107 -107 -107 107 -107 0
-122 -122 -122 122 -122 0
-137 -137 -137 137 -137 0
-152 -152 -152 152 -152 0
-167 -167 -167 167 -167 0
-182 -182 -182 182 -182 0
-197 -197 -197 197 -197 0
-212 -212 -212 212 -212 0
-3 -3 -3 3 3 0
-18 -18 -18 18 18 0
-33 -33 -33 33 33 0
-48 -48 -48 48 48 0
-63 -63 -63 63 63 0
-78 -78 -78 78 78 0
-93 -93 -93 93 93 0
-108 -108 -108 108 108 0
-123 -123 -123 123 123 0
-138 -138 -138 138 138 0
-153 -153 -153 153 153 0
-168 -168 -168 168 168 0
-183 -183 -183 183 183 0
-198 -198 -198 198 198 0
-213 -213 -213 213 213 0
-4 -4 4 -4 -4 0
-19 -19 19 -19 -19 0
-34 -34 34 -34 -34 0
-49 -49 49 -49 -49 0
-64 -64 64 -64 -64 0
-79 -79 79 -79 -79 0
-94 -94 94 -94 -94 0
-109 -109 109 -109 -109 0
-124 -124 124 -124 -124 0
-139 -139 139 -139 -139 0
-154 -154 154 -154 -154 0
-169 -169 169 -169 -169 0
-184 -184 184 -184 -184 0
-199 -199 199 -199 -199 0
-214 -214 214 -214 -214 0
-5 -5 5 -5 5 0
-20 -20 20 -20 20 0
-35 -35 35 -35 35 0
-50 -50 50 -50 50 0
-65 -65 65 -65 65 0
-80 -80 80 -80 80 0
-95 -95 95 -95 95 0
-110 -110 110 -110 110 0
-125 -125 125 -125 125 0
-140 -140 140 -140 140 0
-155 -155 155 -155 155 0
-170 -170 170 -170 170 0
-185 -185 185 -185 185 0
-200 -200 200 -200 200 0
-215 -215 215 -215 215 0
-6 -6 6 6 -6 0
-21 -21 21 21 -21 0
-36 -36 36 36 -36 0
-51 -51 51 51 -51 0
-66 -66 66 66 -66 0
-81 -81 81 81 -81 0
-96 -96 96 96 -96 0
-111 -111 111 111 -111 0
-126 -126 126 126 -126 0
-141 -141 141 141 -141 0
-156 -156 156 156 -156 0
-171 -171 171 171 -171 0
-186 -186 186 186 -186 0
-201 -201 201 201 -201 0
-216 -216 216 216 -216 0
-7 -7 7 7 7 0
-22 -22 22 22 22 0
-37 -37 37 37 37 0
-52 -52 52 52 52 0
-67 -67 67 67 67 0
-82 -82 82 82 82 0
-97 -97 97 97 97 0
-112 -112 112 112 112 0
-127 -127 127 127 127 0
-142 -142 142 142 142 0
-157 -157 157 157 157 0
-172 -172 172 172 172 0
-187 -187 187 187 187 0
-202 -202 202 202 202 0
-217 -217 217 217 217 0
-8 8 -8 -8 -8 0
-23 23 -23 -23 -23 0
-38 38 -38 -38 -38 0
-53 53 -53 -53 -53 0
-68 68 -68 -68 -68 0
-83 83 -83 -83 -83 0
-98 98 -98 -98 -98 0
-113 113 -113 -113 -113 0
-128 128 -128 -128 -128 0
-143 143 -143 -143 -143 0
-158 158 -158 -158 -158 0
-173 173 -173 -173 -173 0
-188 188 -188 -188 -188 0
-203 203 -203 -203 -203 0
-218 218 -218 -218 -218 0
-9 9 -9 -9 9 0
-24 24 -24 -24 24 0
-39 39 -39 -39 39 0
-54 54 -54 -54 54 0
-69 69 -69 -69 69 0
-84 84 -84 -84 84 0
-99 99 -99 -99 99 0
-114 114 -114 -114 114 0
-129 129 -129 -129 129 0
-144 144 -144 -144 144 0
-159 159 -159 -159 159 0
-174 174 -174 -174 174 0
-189 189 -189 -189 189 0
-204 204 -204 -204 204 0
-219 219 -219 -219 219 0
-10 10 -10 10 -10 0
-25 25 -25 25 -25 0
-40 40 -40 40 -40 0
-55 55 -55 55 -55 0
-70 70 -70 70 -70 0
-85 85 -85 85 -85 0
-100 100 -100 100 -100 0
-115 115 -115 115 -115 0
-130 130 -130 130 -130 0
-145 145 -145 145 -145 0
-160 160 -160 160 -160 0
-175 175 -175 175 -175 0
-190 190 -190 190 -190 0
-205 205 -205 205 -205 0
-220 220 -220 220 -220 0
-11 11 -11 11 11 0
-26 26 -26 26 26 0
-41 41 -41 41 41 0
-56 56 -56 56 56 0
-71 71 -71 71 71 0
-86 86 -86 86 86 0
-101 101 -101 101 101 0
-116 116 -116 116 116 0
-131 131 -131 131 131 0
-146 146 -146 146 146 0
-161 161 -161 161 161 0
-176 176 -176 176 176 0
-191 191 -191 191 191 0
-206 206 -206 206 206 0
-221 221 -221 221 221 0
-12 12 12 -12 -12 0
-27 27 27 -27 -27 0
-42 42 42 -42 -42 0
-57 57 57 -57 -57 0
-72 72 72 -72 -72 0
-87 87 87 -87 -87 0
-102 102 102 -102 -102 0
-117 117 117 -117 -117 0
-132 132 132 -132 -132 0
-147 147 147 -147 -147 0
-162 162 162 -162 -162 0
-177 177 177 -177 -177 0
-192 192 192 -192 -192 0
-207 207 207 -207 -207 0
-222 222 222 -222 -222 0
-13 13 13 -13 13 0
-28 28 28 -28 28 0
-43 43 43 -43 43 0
-58 58 58 -58 58 0
-73 73 73 -73 73 0
-88 88 88 -88 88 0
-103 103 103 -103 103 0
-118 118 118 -118 118 0
-133 133 133 -133 133 0
-148 148 148 -148 148 0
-163 163 163 -163 163 0
-178 178 178 -178 178 0
-193 193 193 -193 193 0
-208 208 208 -208 208 0
-223 223 223 -223 223 0
-14 14 14 14 -14 0
-29 29 29 29 -29 0
-44 44 44 44 -44 0
-59 59 59 59 -59 0
-74 74 74 74 -74 0
-89 89 89 89 -89 0
-104 104 104 104 -104 0
-119 119 119 119 -119 0
-134 134 134 134 -134 0
-149 149 149 149 -149 0
-164 164 164 164 -164 0
-179 179 179 179 -179 0
-194 194 194 194 -194 0
-209 209 209 209 -209 0
-224 224 224 224 -224 0
-15 15 15 15 15 0
-30 30 30 30 30 0
-45 45 45 45 45 0
-60 60 60 60 60 0
-75 75 75 75 75 0
-90 90 90 90 90 0
-105 105 105 105 105 0
-120 120 120 120 120 0
-135 135 135 135 135 0
-150 150 150 150 150 0
-165 165 165 165 165 0
-180 180 180 180 180 0
-195 195 195 195 195 0
-210 210 210 210 210 0
-225 225 225 225 225 0
-1 -1 -1 -1 1 0
-16 -16 -16 -16 16 0
-31 -31 -31 -31 31 0
-46 -46 -46 -46 46 0
-61 -61 -61 -61 61 0
-76 -76 -76 -76 76 0
-91 -91 -91 -91 91 0
-106 -106 -106 -106 106 0
-121 -121 -121 -121 121 0
-136 -136 -136 -136 136 0
-151 -151 -151 -151 151 0
-166 -166 -166 -166 166 0
-181 -181 -181 -181 181 0
-196 -196 -196 -196 196 0
-211 -211 -211 -211 211 0
-2 -2 -2 2 -2 0
-17 -17 -17 17 -17 0
-32 -32 -32 32 -32 0
-47 -47 -47 47 -47 0
-62 -62 -62 62 -62 0
-77 -77 -77 77 -77 0
-92 -92 -92 92 -92 0
-107 -107 -107 107 -107 0
-122 -122 -122 122 -122 0
-137 -137 -137 137 -137 0
-152 -152 -152 152 -152 0
-167 -167 -167 167 -167 0
-182 -182 -182 182 -182 0
-197 -197 -197 197 -197 0
-212 -212 -212 212 -212 0
-3 -3 -3 3 3 0
-18 -18 -18 18 18 0
-33 -33 -33 33 33 0
-48 -48 -48 48 48 0
-63 -63 -63 63 63 0
-78 -78 -78 78 78 0
-93 -93 -93 93 93 0
-108 -108 -108 108 108 0
-123 -123 -123 123 123 0
-138 -138 -138 138 138 0
-153 -153 -153 153 153 0
-168 -168 -168 168 168 0
-183 -183 -183 183 183 0
-198 -198 -198 198 198 0
-213 -213 -213 213 213 0
-4 -4 4 -4 -4 0
-19 -19 19 -19 -19 0
-34 -34 34 -34 -34 0
-49 -49 49 -49 -49 0
-64 -64 64 -64 -64 0
-79 -79 79 -79 -79 0
-94 -94 94 -94 -94 0
-109 -109 109 -109 -109 0
-124 -124 124 -124 -124 0
-139 -139 139 -139 -139 0
-154 -154 154 -154 -154 0
-169 -169 169 -169 -169 0
-184 -184 184 -184 -184 0
-199 -199 199 -199 -199 0
-214 -214 214 -214 -214 0
-5 -5 5 -5 5 0
-20 -20 20 -20 20 0
-35 -35 35 -35 35 0
-50 -50 50 -50 50 0
-65 -65 65 -65 65 0
-80 -80 80 -80 80 0
-95 -95 95 -95 95 0
-110 -110 110 -110 110 0
-125 -125 125 -125 125 0
-140 -140 140 -140 140 0
-155 -155 155 -155 155 0
-170 -170 170 -170 170 0
-185 -185 185 -185 185 0
-200 -200 200 -200 200 0
-215 -215 215 -215 215 0
-6 -6 6 6 -6 0
-21 -21 21 21 -21 0
-36 -36 36 36 -36 0
-51 -51 51 51 -51 0
-66 -66 66 66 -66 0
-81 -81 81 81 -81 0
-96 -96 96 96 -96 0
-111 -111 111 111 -111 0
-126 -126 126 126 -126 0
-141 -141 141 141 -141 0
-156 -156 156 156 -156 0
-171 -171 171 171 -171 0
-186 -186 186 186 -186 0
-201 -201 201 201 -201 0
-216 -216 216 216 -216 0
-7 -7 7 7 7 0
-22 -22 22 22 22 0
-37 -37 37 37 37 0
-52 -52 52 52 52 0
-67 -67 67 67 67 0
-82 -82 82 82 82 0
-97 -97 97 97 97 0
-112 -112 112 112 112 0
-127 -127 127 127 127 0
-142 -142 142 142 142 0
-157 -157 157 157 157 0
-172 -172 172 172 172 0
-187 -187 187 187 187 0
-202 -202 202 202 202 0
-217 -217 217 217 217 0
-8 8 -8 -8 -8 0
-23 23 -23 -23 -23 0
-38 38 -38 -38 -38 0
-53 53 -53 -53 -53 0
-68 68 -68 -68 -68 0
-83 83 -83 -83 -83 0
-98 98 -98 -98 -98 0
-113 113 -113 -113 -113 0
-128 128 -128 -128 -128 0
-143 143 -143 -143 -143 0
-158 158 -158 -158 -158 0
-173 173 -173 -173 -173 0
-188 188 -188 -188 -188 0
-203 203 -203 -203 -203 0
-218 218 -218 -218 -218 0
-9 9 -9 -9 9 0
-24 24 -24 -24 24 0
-39 39 -39 -39 39 0
-54 54 -54 -54 54 0
-69 69 -69 -69 69 0
-84 84 -84 -84 84 0
-99 99 -99 -99 99 0
-114 114 -114 -114 114 0
-129 129 -129 -129 129 0
-144 144 -144 -144 144 0
-159 159 -159 -159 159 0
-174 174 -174 -174 174 0
-189 189 -189 -189 189 0
-204 204 -204 -204 204 0
-219 219 -219 -219 219 0
-10 10 -10 10 -10 0
-25 25 -25 25 -25 0
-40 40 -40 40 -40 0
-55 55 -55 55 -55 0
-70 70 -70 70 -70 0
-85 85 -85 85 -85 0
-100 100 -100 100 -100 0
-115 115 -115 115 -115 0
-130 130 -130 130 -130 0
-145 145 -145 145 -145 0
-160 160 -160 160 -160 0
-175 175 -175 175 -175 0
-190 190 -190 190 -190 0
-205 205 -205 205 -205 0
-220 220 -220 220 -220 0
-11 11 -11 11 11 0
-26 26 -26 26 26 0
-41 41 -41 41 41 0
-56 56 -56 56 56 0
-71 71 -71 71 71 0
-86 86 -86 86 86 0
-101 101 -101 101 101 0
-116 116 -116 116 116 0
-131 131 -131 131 131 0
-146 146 -146 146 146 0
-161 161 -161 161 161 0
-176 176 -176 176 176 0
-191 191 -191 191 191 0
-206 206 -206 206 206 0
-221 221 -221 221 221 0
-12 12 12 -12 -12 0
-27 27 27 -27 -27 0
-42 42 42 -42 -42 0
-57 57 57 -57 -57 0
-72 72 72 -72 -72 0
-87 87 87 -87 -87 0
-102 102 102 -102 -102 0
-117 117 117 -117 -117 0
-132 132 132 -132 -132 0
-147 147 147 -147 -147 0
-162 162 162 -162 -162 0
-177 177 177 -177 -177 0
-192 192 192 -192 -192 0
-207 207 207 -207 -207 0
-222 222 222 -222 -222 0
-13 13 13 -13 13 0
-28 28 28 -28 28 0
-43 43 43 -43 43 0
-58 58 58 -58 58 0
-73 73 73 -73 73 0
-88 88 88 -88 88 0
-103 103 103 -103 103 0
-118 118 118 -118 118 0
-133 133 133 -133 133 0
-148 148 148 -148 148 0
-163 163 163 -163 163 0
-178 178 178 -178 178 0
-193 193 193 -193 193 0
-208 208 208 -208 208 0
-223 223 223 -223 223 0
-14 14 14 14 -14 0
-29 29 29 29 -29 0
-44 44 44 44 -44 0
-59 59 59 59 -59 0
-74 74 74 74 -74 0
-89 89 89 89 -89 0
-104 104 104 104 -104 0
-119 119 119 119 -119 0
-134 134 134 134 -134 0
-149 149 149 149 -149 0
-164 164 164 164 -164 0
-179 179 179 179 -179 0
-194 194 194 194 -194 0
-209 209 209 209 -209 0
-224 224 224 224 -224 0
-15 15 15 15 15 0
-30 30 30 30 30 0
-45 45 45 45 45 0
-60 60 60 60 60 0
-75 75 75 75 75 0
-90 90 90 90 90 0
-105 105 105 105 105 0
-120 120 120 120 120 0
-135 135 135 135 135 0
-150 150 150 150 150 0
-165 165 165 165 165 0
-180 180 180 180 180 0
-195 195 195 195 195 0
-210 210 210 210 210 0
-225 225 225 225 225 0
1 2 3 4 5 6 7 8 9 10 11 12 13 14 15 0
16 17 18 19 20 21 22 23 24 25 26 27 28 29 30 0
31 32 33 34 35 36 37 38 39 40 41 42 43 44 45 0
46 47 48 49 50 51 52 53 54 55 56 57 58 59 60 0
61 62 63 64 65 66 67 68 69 70 71 72 73 74 75 0
76 77 78 79 80 81 82 83 84 85 86 87 88 89 90 0
91 92 93 94 95 96 97 98 99 100 101 102 103 104 105 0
106 107 108 109 110 111 112 113 114 115 116 117 118 119 120 0
121 122 123 124 125 126 127 128 129 130 131 132 133 134 135 0
136 137 138 139 140 141 142 143 144 145 146 147 148 149 150 0
151 152 153 154 155 156 157 158 159 160 161 162 163 164 165 0
166 167 168 169 170 171 172 173 174 175 176 177 178 179 180 0
181 182 183 184 185 186 187 188 189 190 191 192 193 194 195 0
196 197 198 199 200 201 202 203 204 205 206 207 208 209 210 0
211 212 213 214 215 216 217 218 219 220 221 222 223 224 225 0
-1 -16 0
-1 -31 0
-2 -17 0
-2 -32 0
-3 -18 0
-3 -33 0
-4 -19 0
-4 -34 0
-5 -20 0
-5 -35 0
-6 -21 0
-6 -36 0
-7 -22 0
-7 -37 0
-8 -23 0
-8 -38 0
-9 -24 0
-9 -39 0
-10 -25 0
-10 -40 0
-11 -26 0
-11 -41 0
-12 -27 0
-12 -42 0
-13 -28 0
-13 -43 0
-14 -29 0
-14 -44 0
-15 -30 0
-15 -45 0
-16 -31 0
-17 -32 0
-18 -33 0
-19 -34 0
-20 -35 0
-21 -36 0
-22 -37 0
-23 -38 0
-24 -39 0
-25 -40 0
-26 -41 0
-27 -42 0
-28 -43 0
-29 -44 0
-30 -45 0
-46 -61 0
-46 -76 0
-47 -62 0
-47 -77 0
-48 -63 0
-48 -78 0
-49 -64 0
-49 -79 0
-50 -65 0
-50 -80 0
-51 -66 0
-51 -81 0
-52 -67 0
-52 -82 0
-53 -68 0
-53 -83 0
-54 -69 0
-54 -84 0
-55 -70 0
-55 -85 0
-56 -71 0
-56 -86 0
-57 -72 0
-57 -87 0
-58 -73 0
-58 -88 0
-59 -74 0
-59 -89 0
-60 -75 0
-60 -90 0
-61 -76 0
-62 -77 0
-63 -78 0
-64 -79 0
-65 -80 0
-66 -81 0
-67 -82 0
-68 -83 0
-69 -84 0
-70 -85 0
-71 -86 0
-72 -87 0
-73 -88 0
-74 -89 0
-75 -90 0
-91 -106 0
-91 -121 0
-92 -107 0
-92 -122 0
-93 -108 0
-93 -123 0
-94 -109 0
-94 -124 0
-95 -110 0
-95 -125 0
-96 -111 0
-96 -126 0
-97 -112 0
-97 -127 0
-98 -113 0
-98 -128 0
-99 -114 0
-99 -129 0
-100 -115 0
-100 -130 0
-101 -116 0
-101 -131 0
-102 -117 0
-102 -132 0
-103 -118 0
-103 -133 0
-104 -119 0
-104 -134 0
-105 -120 0
-105 -135 0
-106 -121 0
-107 -122 0
-108 -123 0
-109 -124 0
-110 -125 0
-111 -126 0
-112 -127 0
-113 -128 0
-114 -129 0
-115 -130 0
-116 -131 0
-117 -132 0
-118 -133 0
-119 -134 0
-120 -135 0
-136 -151 0
-136 -166 0
-137 -152 0
-137 -167 0
-138 -153 0
-138 -168 0
-139 -154 0
-139 -169 0
-140 -155 0
-140 -170 0
-141 -156 0
-141 -171 0
-142 -157 0
-142 -172 0
-143 -158 0
-143 -173 0
-144 -159 0
-144 -174 0
-145 -160 0
-145 -175 0
-146 -161 0
-146 -176 0
-147 -162 0
-147 -177 0
-148 -163 0
-148 -178 0
-149 -164 0
-149 -179 0
-150 -165 0
-150 -180 0
-151 -166 0
-152 -167 0
-153 -168 0
-154 -169 0
-155 -170 0
-156 -171 0
-157 -172 0
-158 -173 0
-159 -174 0
-160 -175 0
-161 -176 0
-162 -177 0
-163 -178 0
-164 -179 0
-165 -180 0
-181 -196 0
-181 -211 0
-182 -197 0
-182 -212 0
-183 -198 0
-183 -213 0
-184 -199 0
-184 -214 0
-185 -200 0
-185 -215 0
-186 -201 0
-186 -216 0
-187 -202 0
-187 -217 0
-188 -203 0
-188 -218 0
-189 -204 0
-189 -219 0
-190 -205 0
-190 -220 0
-191 -206 0
-191 -221 0
-192 -207 0
-192 -222 0
-193 -208 0
-193 -223 0
-194 -209 0
-194 -224 0
-195 -210 0
-195 -225 0
-196 -211 0
-197 -212 0
-198 -213 0
-199 -214 0
-200 -215 0
-201 -216 0
-202 -217 0
-203 -218 0
-204 -219 0
-205 -220 0
-206 -221 0
-207 -222 0
-208 -223 0
-209 -224 0
-210 -225 0
-226 1 16 31 0
-241 46 61 76 0
-256 91 106 121 0
-271 136 151 166 0
-286 181 196 211 0
-227 2 17 32 0
-242 47 62 77 0
-257 92 107 122 0
-272 137 152 167 0
-287 182 197 212 0
-228 3 18 33 0
-243 48 63 78 0
-258 93 108 123 0
-273 138 153 168 0
-288 183 198 213 0
-229 4 19 34 0
-244 49 64 79 0
-259 94 109 124 0
-274 139 154 169 0
-289 184 199 214 0
-230 5 20 35 0
-245 50 65 80 0
-260 95 110 125 0
-275 140 155 170 0
-290 185 200 215 0
-231 6 21 36 0
-246 51 66 81 0
-261 96 111 126 0
-276 141 156 171 0
-291 186 201 216 0
-232 7 22 37 0
-247 52 67 82 0
-262 97 112 127 0
-277 142 157 172 0
-292 187 202 217 0
-233 8 23 38 0
-248 53 68 83 0
-263 98 113 128 0
-278 143 158 173 0
-293 188 203 218 0
-234 9 24 39 0
-249 54 69 84 0
-264 99 114 129 0
-279 144 159 174 0
-294 189 204 219 0
-235 10 25 40 0
-250 55 70 85 0
-265 100 115 130 0
-280 145 160 175 0
-295 190 205 220 0
-236 11 26 41 0
-251 56 71 86 0
-266 101 116 131 0
-281 146 161 176 0
-296 191 206 221 0
-237 12 27 42 0
-252 57 72 87 0
-267 102 117 132 0
-282 147 162 177 0
-297 192 207 222 0
-238 13 28 43 0
-253 58 73 88 0
-268 103 118 133 0
-283 148 163 178 0
-298 193 208 223 0
-239 14 29 44 0
-254 59 74 89 0
-269 104 119 134 0
-284 149 164 179 0
-299 194 209 224 0
-240 15 30 45 0
-255 60 75 90 0
-270 105 120 135 0
-285 150 165 180 0
-300 195 210 225 0
-1 -16 0
-46 -61 0
-91 -106 0
-136 -151 0
-181 -196 0
-16 -31 0
-61 -76 0
-106 -121 0
-151 -166 0
-196 -211 0
-2 -16 0
-2 -17 0
-47 -61 0
-47 -62 0
-92 -106 0
-92 -107 0
-137 -151 0
-137 -152 0
-182 -196 0
-182 -197 0
-17 -31 0
-17 -32 0
-62 -76 0
-62 -77 0
-107 -121 0
-107 -122 0
-152 -166 0
-152 -167 0
-197 -211 0
-197 -212 0
-3 -16 0
-3 -17 0
-3 -18 0
-48 -61 0
-48 -62 0
-48 -63 0
-93 -106 0
-93 -107 0
-93 -108 0
-138 -151 0
-138 -152 0
-138 -153 0
-183 -196 0
-183 -197 0
-183 -198 0
-18 -31 0
-18 -32 0
-18 -33 0
-63 -76 0
-63 -77 0
-63 -78 0
-108 -121 0
-108 -122 0
-108 -123 0
-153 -166 0
-153 -167 0
-153 -168 0
-198 -211 0
-198 -212 0
-198 -213 0
-4 -16 0
-4 -17 0
-4 -18 0
-4 -19 0
-49 -61 0
-49 -62 0
-49 -63 0
-49 -64 0
-94 -106 0
-94 -107 0
-94 -108 0
-94 -109 0
-139 -151 0
-139 -152 0
-139 -153 0
-139 -154 0
-184 -196 0
-184 -197 0
-184 -198 0
-184 -199 0
-19 -31 0
-19 -32 0
-19 -33 0
-19 -34 0
-64 -76 0
-64 -77 0
-64 -78 0
-64 -79 0
-109 -121 0
-109 -122 0
-109 -123 0
-109 -124 0
-154 -166 0
-154 -167 0
-154 -168 0
-154 -169 0
-199 -211 0
-199 -212 0
-199 -213 0
-199 -214 0
-5 -16 0
-5 -17 0
-5 -18 0
-5 -19 0
-5 -20 0
-50 -61 0
-50 -62 0
-50 -63 0
-50 -64 0
-50 -65 0
-95 -106 0
-95 -107 0
-95 -108 0
-95 -109 0
-95 -110 0
-140 -151 0
-140 -152 0
-140 -153 0
-140 -154 0
-140 -155 0
-185 -196 0
-185 -197 0
-185 -198 0
-185 -199 0
-185 -200 0
-20 -31 0
-20 -32 0
-20 -33 0
-20 -34 0
-20 -35 0
-65 -76 0
-65 -77 0
-65 -78 0
-65 -79 0
-65 -80 0
-110 -121 0
-110 -122 0
-110 -123 0
-110 -124 0
-110 -125 0
-155 -166 0
-155 -167 0
-155 -168 0
-155 -169 0
-155 -170 0
-200 -211 0
-200 -212 0
-200 -213 0
-200 -214 0
-200 -215 0
-6 -16 0
-6 -17 0
-6 -18 0
-6 -19 0
-6 -20 0
-6 -21 0
-51 -61 0
-51 -62 0
-51 -63 0
-51 -64 0
-51 -65 0
-51 -66 0
-96 -106 0
-96 -107 0
-96 -108 0
-96 -109 0
-96 -110 0
-96 -111 0
-141 -151 0
-141 -152 0
-141 -153 0
-141 -154 0
-141 -155 0
-141 -156 0
-186 -196 0
-186 -197 0
-186 -198 0
-186 -199 0
-186 -200 0
-186 -201 0
-21 -31 0
-21 -32 0
-21 -33 0
-21 -34 0
-21 -35 0
-21 -36 0
-66 -76 0
-66 -77 0
-66 -78 0
-66 -79 0
-66 -80 0
-66 -81 0
-111 -121 0
-111 -122 0
-111 -123 0
-111 -124 0
-111 -125 0
-111 -126 0
-156 -166 0
-156 -167 0
-156 -168 0
-156 -169 0
-156 -170 0
-156 -171 0
-201 -211 0
-201 -212 0
-201 -213 0
-201 -214 0
-201 -215 0
-201 -216 0
-7 -16 0
-7 -17 0
-7 -18 0
-7 -19 0
-7 -20 0
-7 -21 0
-7 -22 0
-52 -61 0
-52 -62 0
-52 -63 0
-52 -64 0
-52 -65 0
-52 -66 0
-52 -67 0
-97 -106 0
-97 -107 0
-97 -108 0
-97 -109 0
-97 -110 0
-97 -111 0
-97 -112 0
-142 -151 0
-142 -152 0
-142 -153 0
-142 -154 0
-142 -155 0
-142 -156 0
-142 -157 0
-187 -196 0
-187 -197 0
-187 -198 0
-187 -199 0
-187 -200 0
-187 -201 0
-187 -202 0
-22 -31 0
-22 -32 0
-22 -33 0
-22 -34 0
-22 -35 0
-22 -36 0
-22 -37 0
-67 -76 0
-67 -77 0
-67 -78 0
-67 -79 0
-67 -80 0
-67 -81 0
-67 -82 0
-112 -121 0
-112 -122 0
-112 -123 0
-112 -124 0
-112 -125 0
-112 -126 0
-112 -127 0
-157 -166 0
-157 -167 0
-157 -168 0
-157 -169 0
-157 -170 0
-157 -171 0
-157 -172 0
-202 -211 0
-202 -212 0
-202 -213 0
-202 -214 0
-202 -215 0
-202 -216 0
-202 -217 0
-8 -16 0
-8 -17 0
-8 -18 0
-8 -19 0
-8 -20 0
-8 -21 0
-8 -22 0
-8 -23 0
-53 -61 0
-53 -62 0
-53 -63 0
-53 -64 0
-53 -65 0
-53 -66 0
-53 -67 0
-53 -68 0
-98 -106 0
-98 -107 0
-98 -108 0
-98 -109 0
-98 -110 0
-98 -111 0
-98 -112 0
-98 -113 0
-143 -151 0
-143 -152 0
-143 -153 0
-143 -154 0
-143 -155 0
-143 -156 0
-143 -157 0
-143 -158 0
-188 -196 0
-188 -197 0
-188 -198 0
-188 -199 0
-188 -200 0
-188 -201 0
-188 -202 0
-188 -203 0
-23 -31 0
-23 -32 0
-23 -33 0
-23 -34 0
-23 -35 0
-23 -36 0
-23 -37 0
-23 -38 0
-68 -76 0
-68 -77 0
-68 -78 0
-68 -79 0
-68 -80 0
-68 -81 0
-68 -82 0
-68 -83 0
-113 -121 0
-113 -122 0
-113 -123 0
-113 -124 0
-113 -125 0
-113 -126 0
-113 -127 0
-113 -128 0
-158 -166 0
-158 -167 0
-158 -168 0
-158 -169 0
-158 -170 0
-158 -171 0
-158 -172 0
-158 -173 0
-203 -211 0
-203 -212 0
-203 -213 0
-203 -214 0
-203 -215 0
-203 -216 0
-203 -217 0
-203 -218 0
-9 -16 0
-9 -17 0
-9 -18 0
-9 -19 0
-9 -20 0
-9 -21 0
-9 -22 0
-9 -23 0
-9 -24 0
-54 -61 0
-54 -62 0
-54 -63 0
-54 -64 0
-54 -65 0
-54 -66 0
-54 -67 0
-54 -68 0
-54 -69 0
-99 -106 0
-99 -107 0
-99 -108 0
-99 -109 0
-99 -110 0
-99 -111 0
-99 -112 0
-99 -113 0
-99 -114 0
-144 -151 0
-144 -152 0
-144 -153 0
-144 -154 0
-144 -155 0
-144 -156 0
-144 -157 0
-144 -158 0
-144 -159 0
-189 -196 0
-189 -197 0
-189 -198 0
-189 -199 0
-189 -200 0
-189 -201 0
-189 -202 0
-189 -203 0
-189 -204 0
-24 -31 0
-24 -32 0
-24 -33 0
-24 -34 0
-24 -35 0
-24 -36 0
-24 -37 0
-24 -38 0
-24 -39 0
-69 -76 0
-69 -77 0
-69 -78 0
-69 -79 0
-69 -80 0
-69 -81 0
-69 -82 0
-69 -83 0
-69 -84 0
-114 -121 0
-114 -122 0
-114 -123 0
-114 -124 0
-114 -125 0
-114 -126 0
-114 -127 0
-114 -128 0
-114 -129 0
-159 -166 0
-159 -167 0
-159 -168 0
-159 -169 0
-159 -170 0
-159 -171 0
-159 -172 0
-159 -173 0
-159 -174 0
-204 -211 0
-204 -212 0
-204 -213 0
-204 -214 0
-204 -215 0
-204 -216 0
-204 -217 0
-204 -218 0
-204 -219 0
-10 -16 0
-10 -17 0
-10 -18 0
-10 -19 0
-10 -20 0
-10 -21 0
-10 -22 0
-10 -23 0
-10 -24 0
-10 -25 0
-55 -61 0
-55 -62 0
-55 -63 0
-55 -64 0
-55 -65 0
-55 -66 0
-55 -67 0
-55 -68 0
-55 -69 0
-55 -70 0
-100 -106 0
-100 -107 0
-100 -108 0
-100 -109 0
-100 -110 0
-100 -111 0
-100 -112 0
-100 -113 0
-100 -114 0
-100 -115 0
-145 -151 0
-145 -152 0
-145 -153 0
-145 -154 0
-145 -155 0
-145 -156 0
-145 -157 0
-145 -158 0
-145 -159 0
-145 -160 0
-190 -196 0
-190 -197 0
-190 -198 0
-190 -199 0
-190 -200 0
-190 -201 0
-190 -202 0
-190 -203 0
-190 -204 0
-190 -205 0
-25 -31 0
-25 -32 0
-25 -33 0
-25 -34 0
-25 -35 0
-25 -36 0
-25 -37 0
-25 -38 0
-25 -39 0
-25 -40 0
-70 -76 0
-70 -77 0
-70 -78 0
-70 -79 0
-70 -80 0
-70 -81 0
-70 -82 0
-70 -83 0
-70 -84 0
-70 -85 0
-115 -121 0
-115 -122 0
-115 -123 0
-115 -124 0
-115 -125 0
-115 -126 0
-115 -127 0
-115 -128 0
-115 -129 0
-115 -130 0
-160 -166 0
-160 -167 0
-160 -168 0
-160 -169 0
-160 -170 0
-160 -171 0
-160 -172 0
-160 -173 0
-160 -174 0
-160 -175 0
-205 -211 0
-205 -212 0
-205 -213 0
-205 -214 0
-205 -215 0
-205 -216 0
-205 -217 0
-205 -218 0
-205 -219 0
-205 -220 0
-11 -16 0
-11 -17 0
-11 -18 0
-11 -19 0
-11 -20 0
-11 -21 0
-11 -22 0
-11 -23 0
-11 -24 0
-11 -25 0
-11 -26 0
-56 -61 0
-56 -62 0
-56 -63 0
-56 -64 0
-56 -65 0
-56 -66 0
-56 -67 0
-56 -68 0
-56 -69 0
-56 -70 0
-56 -71 0
-101 -106 0
-101 -107 0
-101 -108 0
-101 -109 0
-101 -110 0
-101 -111 0
-101 -112 0
-101 -113 0
-101 -114 0
-101 -115 0
-101 -116 0
-146 -151 0
-146 -152 0
-146 -153 0
-146 -154 0
-146 -155 0
-146 -156 0
-146 -157 0
-146 -158 0
-146 -159 0
-146 -160 0
-146 -161 0
-191 -196 0
-191 -197 0
-191 -198 0
-191 -199 0
-191 -200 0
-191 -201 0
-191 -202 0
-191 -203 0
-191 -204 0
-191 -205 0
-191 -206 0
-26 -31 0
-26 -32 0
-26 -33 0
-26 -34 0
-26 -35 0
-26 -36 0
-26 -37 0
-26 -38 0
-26 -39 0
-26 -40 0
-26 -41 0
-71 -76 0
-71 -77 0
-71 -78 0
-71 -79 0
-71 -80 0
-71 -81 0
-71 -82 0
-71 -83 0
-71 -84 0
-71 -85 0
-71 -86 0
-116 -121 0
-116 -122 0
-116 -123 0
-116 -124 0
-116 -125 0
-116 -126 0
-116 -127 0
-116 -128 0
-116 -129 0
-116 -130 0
-116 -131 0
-161 -166 0
-161 -167 0
-161 -168 0
-161 -169 0
-161 -170 0
-161 -171 0
-161 -172 0
-161 -173 0
-161 -174 0
-161 -175 0
-161 -176 0
-206 -211 0
-206 -212 0
-206 -213 0
-206 -214 0
-206 -215 0
-206 -216 0
-206 -217 0
-206 -218 0
-206 -219 0
-206 -220 0
-206 -221 0
-12 -16 0
-12 -17 0
-12 -18 0
-12 -19 0
-12 -20 0
-12 -21 0
-12 -22 0
-12 -23 0
-12 -24 0
-12 -25 0
-12 -26 0
-12 -27 0
-57 -61 0
-57 -62 0
-57 -63 0
-57 -64 0
-57 -65 0
-57 -66 0
-57 -67 0
-57 -68 0
-57 -69 0
-57 -70 0
-57 -71 0
-57 -72 0
-102 -106 0
-102 -107 0
-102 -108 0
-102 -109 0
-102 -110 0
-102 -111 0
-102 -112 0
-102 -113 0
-102 -114 0
-102 -115 0
-102 -116 0
-102 -117 0
-147 -151 0
-147 -152 0
-147 -153 0
-147 -154 0
-147 -155 0
-147 -156 0
-147 -157 0
-147 -158 0
-147 -159 0
-147 -160 0
-147 -161 0
-147 -162 0
-192 -196 0
-192 -197 0
-192 -198 0
-192 -199 0
-192 -200 0
-192 -201 0
-192 -202 0
-192 -203 0
-192 -204 0
-192 -205 0
-192 -206 0
-192 -207 0
-27 -31 0
-27 -32 0
-27 -33 0
-27 -34 0
-27 -35 0
-27 -36 0
-27 -37 0
-27 -38 0
-27 -39 0
-27 -40 0
-27 -41 0
-27 -42 0
-72 -76 0
-72 -77 0
-72 -78 0
-72 -79 0
-72 -80 0
-72 -81 0
-72 -82 0
-72 -83 0
-72 -84 0
-72 -85 0
-72 -86 0
-72 -87 0
-117 -121 0
-117 -122 0
-117 -123 0
-117 -124 0
-117 -125 0
-117 -126 0
-117 -127 0
-117 -128 0
-117 -129 0
-117 -130 0
-117 -131 0
-117 -132 0
-162 -166 0
-162 -167 0
-162 -168 0
-162 -169 0
-162 -170 0
-162 -171 0
-162 -172 0
-162 -173 0
-162 -174 0
-162 -175 0
-162 -176 0
-162 -177 0
-207 -211 0
-207 -212 0
-207 -213 0
-207 -214 0
-207 -215 0
-207 -216 0
-207 -217 0
-207 -218 0
-207 -219 0
-207 -220 0
-207 -221 0
-207 -222 0
-13 -16 0
-13 -17 0
-13 -18 0
-13 -19 0
-13 -20 0
-13 -21 0
-13 -22 0
-13 -23 0
-13 -24 0
-13 -25 0
-13 -26 0
-13 -27 0
-13 -28 0
-58 -61 0
-58 -62 0
-58 -63 0
-58 -64 0
-58 -65 0
-58 -66 0
-58 -67 0
-58 -68 0
-58 -69 0
-58 -70 0
-58 -71 0
-58 -72 0
-58 -73 0
-103 -106 0
-103 -107 0
-103 -108 0
-103 -109 0
-103 -110 0
-103 -111 0
-103 -112 0
-103 -113 0
-103 -114 0
-103 -115 0
-103 -116 0
-103 -117 0
-103 -118 0
-148 -151 0
-148 -152 0
-148 -153 0
-148 -154 0
-148 -155 0
-148 -156 0
-148 -157 0
-148 -158 0
-148 -159 0
-148 -160 0
-148 -161 0
-148 -162 0
-148 -163 0
-193 -196 0
-193 -197 0
-193 -198 0
-193 -199 0
-193 -200 0
-193 -201 0
-193 -202 0
-193 -203 0
-193 -204 0
-193 -205 0
-193 -206 0
-193 -207 0
-193 -208 0
-28 -31 0
-28 -32 0
-28 -33 0
-28 -34 0
-28 -35 0
-28 -36 0
-28 -37 0
-28 -38 0
-28 -39 0
-28 -40 0
-28 -41 0
-28 -42 0
-28 -43 0
-73 -76 0
-73 -77 0
-73 -78 0
-73 -79 0
-73 -80 0
-73 -81 0
-73 -82 0
-73 -83 0
-73 -84 0
-73 -85 0
-73 -86 0
-73 -87 0
-73 -88 0
-118 -121 0
-118 -122 0
-118 -123 0
-118 -124 0
-118 -125 0
-118 -126 0
-118 -127 0
-118 -128 0
-118 -129 0
-118 -130 0
-118 -131 0
-118 -132 0
-118 -133 0
-163 -166 0
-163 -167 0
-163 -168 0
-163 -169 0
-163 -170 0
-163 -171 0
-163 -172 0
-163 -173 0
-163 -174 0
-163 -175 0
-163 -176 0
-163 -177 0
-163 -178 0
-208 -211 0
-208 -212 0
-208 -213 0
-208 -214 0
-208 -215 0
-208 -216 0
-208 -217 0
-208 -218 0
-208 -219 0
-208 -220 0
-208 -221 0
-208 -222 0
-208 -223 0
-14 -16 0
-14 -17 0
-14 -18 0
-14 -19 0
-14 -20 0
-14 -21 0
-14 -22 0
-14 -23 0
-14 -24 0
-14 -25 0
-14 -26 0
-14 -27 0
-14 -28 0
-14 -29 0
-59 -61 0
-59 -62 0
-59 -63 0
-59 -64 0
-59 -65 0
-59 -66 0
-59 -67 0
-59 -68 0
-59 -69 0
-59 -70 0
-59 -71 0
-59 -72 0
-59 -73 0
-59 -74 0
-104 -106 0
-104 -107 0
-104 -108 0
-104 -109 0
-104 -110 0
-104 -111 0
-104 -112 0
-104 -113 0
-104 -114 0
-104 -115 0
-104 -116 0
-104 -117 0
-104 -118 0
-104 -119 0
-149 -151 0
-149 -152 0
-149 -153 0
-149 -154 0
-149 -155 0
-149 -156 0
-149 -157 0
-149 -158 0
-149 -159 0
-149 -160 0
-149 -161 0
-149 -162 0
-149 -163 0
-149 -164 0
-194 -196 0
-194 -197 0
-194 -198 0
-194 -199 0
-194 -200 0
-194 -201 0
-194 -202 0
-194 -203 0
-194 -204 0
-194 -205 0
-194 -206 0
-194 -207 0
-194 -208 0
-194 -209 0
-29 -31 0
-29 -32 0
-29 -33 0
-29 -34 0
-29 -35 0
-29 -36 0
-29 -37 0
-29 -38 0
-29 -39 0
-29 -40 0
-29 -41 0
-29 -42 0
-29 -43 0
-29 -44 0
-74 -76 0
-74 -77 0
-74 -78 0
-74 -79 0
-74 -80 0
-74 -81 0
-74 -82 0
-74 -83 0
-74 -84 0
-74 -85 0
-74 -86 0
-74 -87 0
-74 -88 0
-74 -89 0
-119 -121 0
-119 -122 0
-119 -123 0
-119 -124 0
-119 -125 0
-119 -126 0
-119 -127 0
-119 -128 0
-119 -129 0
-119 -130 0
-119 -131 0
-119 -132 0
-119 -133 0
-119 -134 0
-164 -166 0
-164 -167 0
-164 -168 0
-164 -169 0
-164 -170 0
-164 -171 0
-164 -172 0
-164 -173 0
-164 -174 0
-164 -175 0
-164 -176 0
-164 -177 0
-164 -178 0
-164 -179 0
-209 -211 0
-209 -212 0
-209 -213 0
-209 -214 0
-209 -215 0
-209 -216 0
-209 -217 0
-209 -218 0
-209 -219 0
-209 -220 0
-209 -221 0
-209 -222 0
-209 -223 0
-209 -224 0
-15 -16 0
-15 -17 0
-15 -18 0
-15 -19 0
-15 -20 0
-15 -21 0
-15 -22 0
-15 -23 0
-15 -24 0
-15 -25 0
-15 -26 0
-15 -27 0
-15 -28 0
-15 -29 0
-15 -30 0
-60 -61 0
-60 -62 0
-60 -63 0
-60 -64 0
-60 -65 0
-60 -66 0
-60 -67 0
-60 -68 0
-60 -69 0
-60 -70 0
-60 -71 0
-60 -72 0
-60 -73 0
-60 -74 0
-60 -75 0
-105 -106 0
-105 -107 0
-105 -108 0
-105 -109 0
-105 -110 0
-105 -111 0
-105 -112 0
-105 -113 0
-105 -114 0
-105 -115 0
-105 -116 0
-105 -117 0
-105 -118 0
-105 -119 0
-105 -120 0
-150 -151 0
-150 -152 0
-150 -153 0
-150 -154 0
-150 -155 0
-150 -156 0
-150 -157 0
-150 -158 0
-150 -159 0
-150 -160 0
-150 -161 0
-150 -162 0
-150 -163 0
-150 -164 0
-150 -165 0
-195 -196 0
-195 -197 0
-195 -198 0
-195 -199 0
-195 -200 0
-195 -201 0
-195 -202 0
-195 -203 0
-195 -204 0
-195 -205 0
-195 -206 0
-195 -207 0
-195 -208 0
-195 -209 0
-195 -210 0
-30 -31 0
-30 -32 0
-30 -33 0
-30 -34 0
-30 -35 0
-30 -36 0
-30 -37 0
-30 -38 0
-30 -39 0
-30 -40 0
-30 -41 0
-30 -42 0
-30 -43 0
-30 -44 0
-30 -45 0
-75 -76 0
-75 -77 0
-75 -78 0
-75 -79 0
-75 -80 0
-75 -81 0
-75 -82 0
-75 -83 0
-75 -84 0
-75 -85 0
-75 -86 0
-75 -87 0
-75 -88 0
-75 -89 0
-75 -90 0
-120 -121 0
-120 -122 0
-120 -123 0
-120 -124 0
-120 -125 0
-120 -126 0
-120 -127 0
-120 -128 0
-120 -129 0
-120 -130 0
-120 -131 0
-120 -132 0
-120 -133 0
-120 -134 0
-120 -135 0
-165 -166 0
-165 -167 0
-165 -168 0
-165 -169 0
-165 -170 0
-165 -171 0
-165 -172 0
-165 -173 0
-165 -174 0
-165 -175 0
-165 -176 0
-165 -177 0
-165 -178 0
-165 -179 0
-165 -180 0
-210 -211 0
-210 -212 0
-210 -213 0
-210 -214 0
-210 -215 0
-210 -216 0
-210 -217 0
-210 -218 0
-210 -219 0
-210 -220 0
-210 -221 0
-210 -222 0
-210 -223 0
-210 -224 0
-210 -225 0
-2 -46 0
-47 -91 0
-92 -136 0
-137 -181 0
-3 -46 0
-3 -47 0
-48 -91 0
-48 -92 0
-93 -136 0
-93 -137 0
-138 -181 0
-138 -182 0
-4 -46 0
-4 -47 0
-4 -48 0
-49 -91 0
-49 -92 0
-49 -93 0
-94 -136 0
-94 -137 0
-94 -138 0
-139 -181 0
-139 -182 0
-139 -183 0
-5 -46 0
-5 -47 0
-5 -48 0
-5 -49 0
-50 -91 0
-50 -92 0
-50 -93 0
-50 -94 0
-95 -136 0
-95 -137 0
-95 -138 0
-95 -139 0
-140 -181 0
-140 -182 0
-140 -183 0
-140 -184 0
-6 -46 0
-6 -47 0
-6 -48 0
-6 -49 0
-6 -50 0
-51 -91 0
-51 -92 0
-51 -93 0
-51 -94 0
-51 -95 0
-96 -136 0
-96 -137 0
-96 -138 0
-96 -139 0
-96 -140 0
-141 -181 0
-141 -182 0
-141 -183 0
-141 -184 0
-141 -185 0
-7 -46 0
-7 -47 0
-7 -48 0
-7 -49 0
-7 -50 0
-7 -51 0
-52 -91 0
-52 -92 0
-52 -93 0
-52 -94 0
-52 -95 0
-52 -96 0
-97 -136 0
-97 -137 0
-97 -138 0
-97 -139 0
-97 -140 0
-97 -141 0
-142 -181 0
-142 -182 0
-142 -183 0
-142 -184 0
-142 -185 0
-142 -186 0
-8 -46 0
-8 -47 0
-8 -48 0
-8 -49 0
-8 -50 0
-8 -51 0
-8 -52 0
-53 -91 0
-53 -92 0
-53 -93 0
-53 -94 0
-53 -95 0
-53 -96 0
-53 -97 0
-98 -136 0
-98 -137 0
-98 -138 0
-98 -139 0
-98 -140 0
-98 -141 0
-98 -142 0
-143 -181 0
-143 -182 0
-143 -183 0
-143 -184 0
-143 -185 0
-143 -186 0
-143 -187 0
-9 -46 0
-9 -47 0
-9 -48 0
-9 -49 0
-9 -50 0
-9 -51 0
-9 -52 0
-9 -53 0
-54 -91 0
-54 -92 0
-54 -93 0
-54 -94 0
-54 -95 0
-54 -96 0
-54 -97 0
-54 -98 0
-99 -136 0
-99 -137 0
-99 -138 0
-99 -139 0
-99 -140 0
-99 -141 0
-99 -142 0
-99 -143 0
-144 -181 0
-144 -182 0
-144 -183 0
-144 -184 0
-144 -185 0
-144 -186 0
-144 -187 0
-144 -188 0
-10 -46 0
-10 -47 0
-10 -48 0
-10 -49 0
-10 -50 0
-10 -51 0
-10 -52 0
-10 -53 0
-10 -54 0
-55 -91 0
-55 -92 0
-55 -93 0
-55 -94 0
-55 -95 0
-55 -96 0
-55 -97 0
-55 -98 0
-55 -99 0
-100 -136 0
-100 -137 0
-100 -138 0
-100 -139 0
-100 -140 0
-100 -141 0
-100 -142 0
-100 -143 0
-100 -144 0
-145 -181 0
-145 -182 0
-145 -183 0
-145 -184 0
-145 -185 0
-145 -186 0
-145 -187 0
-145 -188 0
-145 -189 0
-11 -46 0
-11 -47 0
-11 -48 0
-11 -49 0
-11 -50 0
-11 -51 0
-11 -52 0
-11 -53 0
-11 -54 0
-11 -55 0
-56 -91 0
-56 -92 0
-56 -93 0
-56 -94 0
-56 -95 0
-56 -96 0
-56 -97 0
-56 -98 0
-56 -99 0
-56 -100 0
-101 -136 0
-101 -137 0
-101 -138 0
-101 -139 0
-101 -140 0
-101 -141 0
-101 -142 0
-101 -143 0
-101 -144 0
-101 -145 0
-146 -181 0
-146 -182 0
-146 -183 0
-146 -184 0
-146 -185 0
-146 -186 0
-146 -187 0
-146 -188 0
-146 -189 0
-146 -190 0
-12 -46 0
-12 -47 0
-12 -48 0
-12 -49 0
-12 -50 0
-12 -51 0
-12 -52 0
-12 -53 0
-12 -54 0
-12 -55 0
-12 -56 0
-57 -91 0
-57 -92 0
-57 -93 0
-57 -94 0
-57 -95 0
-57 -96 0
-57 -97 0
-57 -98 0
-57 -99 0
-57 -100 0
-57 -101 0
-102 -136 0
-102 -137 0
-102 -138 0
-102 -139 0
-102 -140 0
-102 -141 0
-102 -142 0
-102 -143 0
-102 -144 0
-102 -145 0
-102 -146 0
-147 -181 0
-147 -182 0
-147 -183 0
-147 -184 0
-147 -185 0
-147 -186 0
-147 -187 0
-147 -188 0
-147 -189 0
-147 -190 0
-147 -191 0
-13 -46 0
-13 -47 0
-13 -48 0
-13 -49 0
-13 -50 0
-13 -51 0
-13 -52 0
-13 -53 0
-13 -54 0
-13 -55 0
-13 -56 0
-13 -57 0
-58 -91 0
-58 -92 0
-58 -93 0
-58 -94 0
-58 -95 0
-58 -96 0
-58 -97 0
-58 -98 0
-58 -99 0
-58 -100 0
-58 -101 0
-58 -102 0
-103 -136 0
-103 -137 0
-103 -138 0
-103 -139 0
-103 -140 0
-103 -141 0
-103 -142 0
-103 -143 0
-103 -144 0
-103 -145 0
-103 -146 0
-103 -147 0
-148 -181 0
-148 -182 0
-148 -183 0
-148 -184 0
-148 -185 0
-148 -186 0
-148 -187 0
-148 -188 0
-148 -189 0
-148 -190 0
-148 -191 0
-148 -192 0
-14 -46 0
-14 -47 0
-14 -48 0
-14 -49 0
-14 -50 0
-14 -51 0
-14 -52 0
-14 -53 0
-14 -54 0
-14 -55 0
-14 -56 0
-14 -57 0
-14 -58 0
-59 -91 0
-59 -92 0
-59 -93 0
-59 -94 0
-59 -95 0
-59 -96 0
-59 -97 0
-59 -98 0
-59 -99 0
-59 -100 0
-59 -101 0
-59 -102 0
-59 -103 0
-104 -136 0
-104 -137 0
-104 -138 0
-104 -139 0
-104 -140 0
-104 -141 0
-104 -142 0
-104 -143 0
-104 -144 0
-104 -145 0
-104 -146 0
-104 -147 0
-104 -148 0
-149 -181 0
-149 -182 0
-149 -183 0
-149 -184 0
-149 -185 0
-149 -186 0
-149 -187 0
-149 -188 0
-149 -189 0
-149 -190 0
-149 -191 0
-149 -192 0
-149 -193 0
-15 -46 0
-15 -47 0
-15 -48 0
-15 -49 0
-15 -50 0
-15 -51 0
-15 -52 0
-15 -53 0
-15 -54 0
-15 -55 0
-15 -56 0
-15 -57 0
-15 -58 0
-15 -59 0
-60 -91 0
-60 -92 0
-60 -93 0
-60 -94 0
-60 -95 0
-60 -96 0
-60 -97 0
-60 -98 0
-60 -99 0
-60 -100 0
-60 -101 0
-60 -102 0
-60 -103 0
-60 -104 0
-105 -136 0
-105 -137 0
-105 -138 0
-105 -139 0
-105 -140 0
-105 -141 0
-105 -142 0
-105 -143 0
-105 -144 0
-105 -145 0
-105 -146 0
-105 -147 0
-105 -148 0
-105 -149 0
-150 -181 0
-150 -182 0
-150 -183 0
-150 -184 0
-150 -185 0
-150 -186 0
-150 -187 0
-150 -188 0
-150 -189 0
-150 -190 0
-150 -191 0
-150 -192 0
-150 -193 0
-150 -194 0
